samples/cav-samples/dining-cryptographers-implementation.smt2
  

(define-fun out_b ((x!0 S)   (x!1 Bool)   (x!2 Bool)   (x!3 Bool)   (x!4 Bool)   (x!5 Bool)   (x!6 Bool)   (x!7 Bool)) Bool    (or (and (not x!1) (not x!2) (not x!3) x!4 x!5 x!6 (not x!7))        (and x!1 x!2 x!3 x!4 x!5 (not x!6) x!7)        (and (not x!1) x!2 x!3 (not x!4) (not x!5) x!6 x!7)        (and x!1 x!2 x!3 x!4 (not x!5) x!6 x!7)        (and x!1 x!2 x!3 x!4 (not x!5) x!6 (not x!7))        (and x!1 x!2 x!3 (not x!4) (not x!5) x!6 x!7)        (and (not x!1) x!2 x!3 x!4 (not x!5) x!6 (not x!7))        (and x!1 x!2 x!3 (not x!4) (not x!5) x!6 (not x!7))        (and x!1 x!2 x!3 (not x!4) x!5 (not x!6) x!7)        (and x!1 (not x!2) x!3 x!4 x!5 x!6 x!7)        (and x!1 x!2 x!3 x!4 x!5 (not x!6) (not x!7))        (and x!1 x!2 (not x!3) (not x!4) x!5 (not x!6) x!7)        (and x!1 (not x!2) x!3 x!4 x!5 x!6 (not x!7))        (and x!1 (not x!2) (not x!3) x!4 x!5 x!6 x!7)        (and x!1 (not x!2) x!3 (not x!4) x!5 x!6 (not x!7))        (and (not x!1) (not x!2) (not x!3) x!4 x!5 x!6 x!7)        (and x!1 (not x!2) (not x!3) x!4 x!5 x!6 (not x!7))        (and (not x!1) (not x!2) x!3 (not x!4) x!5 x!6 x!7)        (and (not x!1) (not x!2) (not x!3) (not x!4) x!5 x!6 x!7)        (and (not x!1) x!2 x!3 x!4 (not x!5) x!6 x!7)        (and (not x!1) (not x!2) x!3 x!4 x!5 x!6 (not x!7))        (and x!1 (not x!2) x!3 (not x!4) x!5 x!6 x!7)        (and x!1 (not x!2) (not x!3) (not x!4) x!5 x!6 x!7)        (and x!1 x!2 (not x!3) x!4 x!5 (not x!6) x!7)        (and x!1 x!2 x!3 (not x!4) x!5 (not x!6) (not x!7))        (and x!1 x!2 (not x!3) x!4 x!5 (not x!6) (not x!7))        (and (not x!1) x!2 x!3 x!4 x!5 (not x!6) x!7)        (and x!1 x!2 (not x!3) (not x!4) x!5 (not x!6) (not x!7))        (and (not x!1) x!2 x!3 (not x!4) x!5 (not x!6) x!7)        (and x!1 x!2 (not x!3) x!4 (not x!5) x!6 x!7)        (and (not x!1) x!2 (not x!3) x!4 (not x!5) x!6 x!7)        (and (not x!1) (not x!2) x!3 x!4 x!5 x!6 x!7)        (and (not x!1) (not x!2) x!3 (not x!4) x!5 x!6 (not x!7))        (and x!1 x!2 (not x!3) (not x!4) (not x!5) x!6 x!7)        (and x!1 (not x!2) x!3 x!4 (not x!5) (not x!6) x!7)        (and (not x!1) (not x!2) x!3 x!4 (not x!5) (not x!6) x!7)        (and x!1 x!2 (not x!3) x!4 (not x!5) x!6 (not x!7))        (and (not x!1) x!2 (not x!3) x!4 (not x!5) x!6 (not x!7))        (and x!1 (not x!2) (not x!3) (not x!4) x!5 x!6 (not x!7))        (and (not x!1) x!2 x!3 x!4 x!5 (not x!6) (not x!7))        (and (not x!1) (not x!2) (not x!3) (not x!4) x!5 x!6 (not x!7))        (and x!1 (not x!2) x!3 (not x!4) (not x!5) (not x!6) x!7)        (and x!1 (not x!2) x!3 x!4 (not x!5) (not x!6) (not x!7))        (and (not x!1) x!2 x!3 (not x!4) (not x!5) x!6 (not x!7))        (and x!1 x!2 (not x!3) (not x!4) (not x!5) x!6 (not x!7))        (and (not x!1) (not x!2) x!3 x!4 (not x!5) (not x!6) (not x!7))        (and (not x!1) x!2 x!3 (not x!4) x!5 (not x!6) (not x!7))        (and (not x!1) x!2 (not x!3) x!4 x!5 (not x!6) x!7)        (and (not x!1) x!2 (not x!3) x!4 x!5 (not x!6) (not x!7))        (and (not x!1) x!2 (not x!3) (not x!4) x!5 (not x!6) x!7)        (and (not x!1) x!2 (not x!3) (not x!4) x!5 (not x!6) (not x!7))        (and (not x!1) x!2 (not x!3) (not x!4) (not x!5) x!6 (not x!7))        (and (not x!1) x!2 (not x!3) (not x!4) (not x!5) x!6 x!7)        (and (not x!1) (not x!2) x!3 (not x!4) (not x!5) (not x!6) x!7)        (and x!1 (not x!2) x!3 (not x!4) (not x!5) (not x!6) (not x!7))        (and x!1 (not x!2) (not x!3) x!4 (not x!5) (not x!6) (not x!7))        (and (not x!1) (not x!2) (not x!3) x!4 (not x!5) (not x!6) x!7)        (and x!1 (not x!2) (not x!3) (not x!4) (not x!5) (not x!6) x!7)        (and x!1 (not x!2) (not x!3) x!4 (not x!5) (not x!6) x!7)        (and (not x!1) (not x!2) (not x!3) (not x!4) (not x!5) (not x!6) x!7)        (and x!1 (not x!2) (not x!3) (not x!4) (not x!5) (not x!6) (not x!7))        (and (not x!1) (not x!2) (not x!3) x!4 (not x!5) (not x!6) (not x!7))        (and (not x!1)             (not x!2)             (not x!3)             (not x!4)             (not x!5)             (not x!6)             (not x!7))        (and (not x!1) (not x!2) x!3 (not x!4) (not x!5) (not x!6) (not x!7))))  

(define-fun out_c ((x!0 S)   (x!1 Bool)   (x!2 Bool)   (x!3 Bool)   (x!4 Bool)   (x!5 Bool)   (x!6 Bool)   (x!7 Bool)) Bool    (or (and (not x!1) x!2 x!3 x!4 x!5 (not x!6) (not x!7))        (and x!1 x!2 x!3 x!4 x!5 x!6 x!7)        (and x!1 x!2 x!3 (not x!4) x!5 x!6 x!7)        (and x!1 (not x!2) x!3 x!4 x!5 x!6 x!7)        (and x!1 x!2 x!3 x!4 x!5 (not x!6) (not x!7))        (and x!1 (not x!2) x!3 x!4 x!5 (not x!6) (not x!7))        (and x!1 x!2 x!3 x!4 (not x!5) (not x!6) (not x!7))        (and x!1 x!2 x!3 (not x!4) x!5 (not x!6) (not x!7))        (and (not x!1) x!2 x!3 x!4 x!5 x!6 x!7)        (and x!1 (not x!2) x!3 (not x!4) x!5 (not x!6) (not x!7))        (and x!1 (not x!2) (not x!3) x!4 x!5 x!6 (not x!7))        (and x!1 x!2 (not x!3) x!4 x!5 x!6 (not x!7))        (and (not x!1) x!2 (not x!3) x!4 x!5 x!6 (not x!7))        (and x!1 x!2 (not x!3) (not x!4) x!5 x!6 (not x!7))        (and (not x!1) x!2 (not x!3) (not x!4) x!5 x!6 (not x!7))        (and x!1 (not x!2) x!3 (not x!4) x!5 x!6 x!7)        (and x!1 (not x!2) (not x!3) x!4 (not x!5) x!6 (not x!7))        (and x!1 x!2 (not x!3) x!4 x!5 (not x!6) x!7)        (and (not x!1) (not x!2) x!3 x!4 x!5 (not x!6) (not x!7))        (and (not x!1) (not x!2) (not x!3) x!4 x!5 x!6 (not x!7))        (and x!1 x!2 x!3 (not x!4) (not x!5) (not x!6) (not x!7))        (and (not x!1) (not x!2) (not x!3) x!4 x!5 (not x!6) x!7)        (and (not x!1) (not x!2) (not x!3) x!4 (not x!5) x!6 (not x!7))        (and (not x!1) (not x!2) x!3 x!4 x!5 x!6 x!7)        (and (not x!1) x!2 x!3 (not x!4) x!5 (not x!6) (not x!7))        (and x!1 x!2 (not x!3) (not x!4) x!5 (not x!6) x!7)        (and x!1 (not x!2) (not x!3) (not x!4) x!5 x!6 (not x!7))        (and x!1 (not x!2) x!3 x!4 (not x!5) (not x!6) (not x!7))        (and x!1 (not x!2) (not x!3) (not x!4) x!5 (not x!6) x!7)        (and x!1 (not x!2) (not x!3) x!4 x!5 (not x!6) x!7)        (and (not x!1) (not x!2) x!3 (not x!4) x!5 (not x!6) (not x!7))        (and (not x!1) (not x!2) (not x!3) x!4 (not x!5) (not x!6) x!7)        (and x!1 x!2 (not x!3) x!4 (not x!5) x!6 (not x!7))        (and (not x!1) x!2 (not x!3) x!4 (not x!5) x!6 (not x!7))        (and x!1 x!2 (not x!3) (not x!4) (not x!5) x!6 (not x!7))        (and x!1 (not x!2) x!3 (not x!4) (not x!5) (not x!6) (not x!7))        (and x!1 (not x!2) (not x!3) (not x!4) (not x!5) x!6 (not x!7))        (and (not x!1) (not x!2) (not x!3) (not x!4) x!5 (not x!6) x!7)        (and (not x!1) (not x!2) (not x!3) (not x!4) x!5 x!6 (not x!7))        (and x!1 x!2 x!3 x!4 (not x!5) x!6 x!7)        (and (not x!1) x!2 x!3 (not x!4) x!5 x!6 x!7)        (and (not x!1) x!2 x!3 x!4 (not x!5) x!6 x!7)        (and (not x!1) x!2 (not x!3) (not x!4) x!5 (not x!6) x!7)        (and (not x!1) x!2 (not x!3) x!4 x!5 (not x!6) x!7)        (and (not x!1) x!2 (not x!3) x!4 (not x!5) (not x!6) x!7)        (and (not x!1) x!2 x!3 x!4 (not x!5) (not x!6) (not x!7))        (and (not x!1) (not x!2) x!3 x!4 (not x!5) (not x!6) (not x!7))        (and x!1 x!2 (not x!3) x!4 (not x!5) (not x!6) x!7)        (and (not x!1) x!2 x!3 (not x!4) (not x!5) (not x!6) (not x!7))        (and (not x!1) x!2 (not x!3) (not x!4) (not x!5) x!6 (not x!7))        (and x!1 x!2 x!3 (not x!4) (not x!5) x!6 x!7)        (and (not x!1) x!2 x!3 (not x!4) (not x!5) x!6 x!7)        (and (not x!1) x!2 (not x!3) (not x!4) (not x!5) (not x!6) x!7)        (and (not x!1) (not x!2) x!3 (not x!4) x!5 x!6 x!7)        (and x!1 (not x!2) x!3 x!4 (not x!5) x!6 x!7)        (and x!1 (not x!2) x!3 (not x!4) (not x!5) x!6 x!7)        (and (not x!1) (not x!2) x!3 x!4 (not x!5) x!6 x!7)        (and (not x!1) (not x!2) x!3 (not x!4) (not x!5) x!6 x!7)        (and (not x!1) (not x!2) (not x!3) (not x!4) (not x!5) x!6 (not x!7))        (and (not x!1) (not x!2) (not x!3) (not x!4) (not x!5) (not x!6) x!7)        (and x!1 (not x!2) (not x!3) x!4 (not x!5) (not x!6) x!7)        (and x!1 x!2 (not x!3) (not x!4) (not x!5) (not x!6) x!7)        (and x!1 (not x!2) (not x!3) (not x!4) (not x!5) (not x!6) x!7)        (and (not x!1) (not x!2) x!3 (not x!4) (not x!5) (not x!6) (not x!7))))  


(define-fun tau ((x!0 S)   (x!1 Bool)   (x!2 Bool)   (x!3 Bool)   (x!4 Bool)   (x!5 Bool)   (x!6 Bool)   (x!7 Bool)) S    s_0)  









(define-fun paid_group ((x!0 S)   (x!1 Bool)   (x!2 Bool)   (x!3 Bool)   (x!4 Bool)   (x!5 Bool)   (x!6 Bool)   (x!7 Bool)) Bool    (or (and x!1 x!2 x!3 x!4 x!5 x!6 x!7)        (and x!1 x!2 x!3 (not x!4) x!5 x!6 x!7)        (and x!1 x!2 x!3 x!4 (not x!5) (not x!6) (not x!7))        (and x!1 x!2 x!3 (not x!4) (not x!5) (not x!6) (not x!7))        (and (not x!1) x!2 (not x!3) x!4 x!5 x!6 (not x!7))        (and x!1 (not x!2) (not x!3) x!4 (not x!5) x!6 (not x!7))        (and (not x!1) x!2 (not x!3) x!4 (not x!5) (not x!6) x!7)        (and (not x!1) (not x!2) x!3 x!4 (not x!5) x!6 x!7)        (and x!1 (not x!2) (not x!3) x!4 x!5 (not x!6) x!7)        (and x!1 x!2 x!3 x!4 x!5 (not x!6) x!7)        (and x!1 x!2 x!3 (not x!4) x!5 (not x!6) x!7)        (and x!1 x!2 x!3 x!4 (not x!5) x!6 (not x!7))        (and x!1 x!2 x!3 (not x!4) (not x!5) x!6 (not x!7))        (and x!1 (not x!2) (not x!3) x!4 x!5 x!6 x!7)        (and (not x!1) (not x!2) x!3 x!4 x!5 x!6 (not x!7))        (and (not x!1) x!2 (not x!3) x!4 (not x!5) x!6 x!7)        (and x!1 (not x!2) (not x!3) x!4 (not x!5) (not x!6) (not x!7))        (and (not x!1) (not x!2) x!3 x!4 (not x!5) (not x!6) x!7)        (and (not x!1) x!2 (not x!3) x!4 x!5 (not x!6) (not x!7))        (and x!1 x!2 x!3 x!4 x!5 x!6 (not x!7))        (and x!1 x!2 x!3 (not x!4) x!5 x!6 (not x!7))        (and x!1 x!2 x!3 x!4 (not x!5) (not x!6) x!7)        (and (not x!1) x!2 (not x!3) x!4 x!5 x!6 x!7)        (and (not x!1) x!2 (not x!3) x!4 x!5 (not x!6) x!7)        (and (not x!1) x!2 (not x!3) (not x!4) x!5 (not x!6) x!7)        (and x!1 (not x!2) (not x!3) x!4 x!5 x!6 (not x!7))        (and x!1 x!2 x!3 x!4 (not x!5) x!6 x!7)        (and x!1 x!2 x!3 (not x!4) (not x!5) (not x!6) x!7)        (and x!1 (not x!2) (not x!3) x!4 (not x!5) (not x!6) x!7)        (and x!1 x!2 x!3 x!4 x!5 (not x!6) (not x!7))        (and x!1 x!2 x!3 (not x!4) (not x!5) x!6 x!7)        (and x!1 x!2 x!3 (not x!4) x!5 (not x!6) (not x!7))        (and x!1 (not x!2) (not x!3) x!4 x!5 (not x!6) (not x!7))        (and (not x!1) (not x!2) x!3 x!4 x!5 (not x!6) x!7)        (and x!1 (not x!2) (not x!3) x!4 (not x!5) x!6 x!7)        (and (not x!1) (not x!2) x!3 x!4 (not x!5) x!6 (not x!7))        (and (not x!1) x!2 (not x!3) x!4 (not x!5) (not x!6) (not x!7))        (and (not x!1) (not x!2) x!3 x!4 x!5 (not x!6) (not x!7))        (and (not x!1) (not x!2) x!3 x!4 x!5 x!6 x!7)        (and (not x!1) x!2 (not x!3) x!4 (not x!5) x!6 (not x!7))        (and x!1 (not x!2) (not x!3) (not x!4) (not x!5) (not x!6) x!7)        (and (not x!1) (not x!2) x!3 x!4 (not x!5) (not x!6) (not x!7))        (and (not x!1) (not x!2) x!3 (not x!4) x!5 x!6 x!7)        (and (not x!1) (not x!2) x!3 (not x!4) x!5 x!6 (not x!7))        (and (not x!1) (not x!2) x!3 (not x!4) x!5 (not x!6) x!7)        (and (not x!1) (not x!2) x!3 (not x!4) (not x!5) x!6 x!7)        (and (not x!1) (not x!2) x!3 (not x!4) x!5 (not x!6) (not x!7))        (and (not x!1) x!2 (not x!3) (not x!4) x!5 x!6 x!7)        (and (not x!1) x!2 (not x!3) (not x!4) x!5 x!6 (not x!7))        (and (not x!1) (not x!2) x!3 (not x!4) (not x!5) x!6 (not x!7))        (and x!1 (not x!2) (not x!3) (not x!4) x!5 x!6 x!7)        (and (not x!1) x!2 (not x!3) (not x!4) x!5 (not x!6) (not x!7))        (and x!1 (not x!2) (not x!3) (not x!4) (not x!5) x!6 x!7)        (and x!1 (not x!2) (not x!3) (not x!4) x!5 (not x!6) x!7)        (and x!1 (not x!2) (not x!3) (not x!4) x!5 x!6 (not x!7))        (and x!1 (not x!2) (not x!3) (not x!4) (not x!5) x!6 (not x!7))        (and x!1 (not x!2) (not x!3) (not x!4) x!5 (not x!6) (not x!7))        (and x!1 (not x!2) (not x!3) (not x!4) (not x!5) (not x!6) (not x!7))        (and (not x!1) x!2 (not x!3) (not x!4) (not x!5) x!6 x!7)        (and (not x!1) (not x!2) x!3 (not x!4) (not x!5) (not x!6) x!7)        (and (not x!1) x!2 (not x!3) (not x!4) (not x!5) x!6 (not x!7))        (and (not x!1) x!2 (not x!3) (not x!4) (not x!5) (not x!6) x!7)        (and (not x!1) x!2 (not x!3) (not x!4) (not x!5) (not x!6) (not x!7))        (and (not x!1) (not x!2) x!3 (not x!4) (not x!5) (not x!6) (not x!7))))  

(define-fun out_a ((x!0 S)   (x!1 Bool)   (x!2 Bool)   (x!3 Bool)   (x!4 Bool)   (x!5 Bool)   (x!6 Bool)   (x!7 Bool)) Bool    (or (and x!1 x!2 x!3 x!4 x!5 x!6 x!7)        (and x!1 x!2 x!3 x!4 x!5 (not x!6) x!7)        (and x!1 x!2 x!3 (not x!4) x!5 x!6 x!7)        (and x!1 x!2 x!3 (not x!4) x!5 (not x!6) x!7)        (and x!1 x!2 x!3 x!4 (not x!5) x!6 (not x!7))        (and x!1 x!2 x!3 (not x!4) (not x!5) x!6 (not x!7))        (and x!1 x!2 x!3 x!4 (not x!5) (not x!6) (not x!7))        (and x!1 x!2 (not x!3) x!4 x!5 x!6 x!7)        (and x!1 x!2 (not x!3) (not x!4) x!5 x!6 x!7)        (and x!1 (not x!2) (not x!3) x!4 x!5 x!6 x!7)        (and x!1 (not x!2) x!3 x!4 x!5 x!6 x!7)        (and (not x!1) (not x!2) x!3 x!4 x!5 x!6 (not x!7))        (and x!1 x!2 x!3 (not x!4) (not x!5) (not x!6) (not x!7))        (and x!1 (not x!2) x!3 x!4 (not x!5) x!6 (not x!7))        (and (not x!1) x!2 x!3 x!4 x!5 x!6 (not x!7))        (and (not x!1) x!2 x!3 (not x!4) x!5 x!6 (not x!7))        (and (not x!1) x!2 (not x!3) x!4 x!5 x!6 (not x!7))        (and x!1 (not x!2) x!3 (not x!4) x!5 x!6 x!7)        (and (not x!1) x!2 (not x!3) x!4 (not x!5) x!6 x!7)        (and (not x!1) (not x!2) (not x!3) x!4 (not x!5) x!6 x!7)        (and x!1 (not x!2) x!3 (not x!4) (not x!5) x!6 (not x!7))        (and (not x!1) x!2 x!3 x!4 (not x!5) x!6 x!7)        (and x!1 (not x!2) (not x!3) x!4 (not x!5) x!6 (not x!7))        (and x!1 x!2 (not x!3) x!4 x!5 (not x!6) x!7)        (and (not x!1) x!2 (not x!3) x!4 (not x!5) (not x!6) x!7)        (and x!1 (not x!2) (not x!3) (not x!4) x!5 x!6 x!7)        (and (not x!1) (not x!2) x!3 x!4 x!5 (not x!6) (not x!7))        (and (not x!1) (not x!2) x!3 (not x!4) x!5 x!6 (not x!7))        (and (not x!1) x!2 (not x!3) (not x!4) x!5 x!6 (not x!7))        (and (not x!1) (not x!2) (not x!3) x!4 x!5 x!6 (not x!7))        (and (not x!1) (not x!2) (not x!3) x!4 x!5 (not x!6) (not x!7))        (and x!1 x!2 (not x!3) x!4 (not x!5) (not x!6) (not x!7))        (and x!1 x!2 (not x!3) (not x!4) x!5 (not x!6) x!7)        (and x!1 (not x!2) (not x!3) x!4 (not x!5) (not x!6) (not x!7))        (and x!1 (not x!2) x!3 x!4 x!5 (not x!6) x!7)        (and x!1 (not x!2) x!3 x!4 (not x!5) (not x!6) (not x!7))        (and x!1 x!2 (not x!3) (not x!4) (not x!5) x!6 (not x!7))        (and x!1 x!2 (not x!3) x!4 (not x!5) x!6 (not x!7))        (and (not x!1) (not x!2) x!3 (not x!4) x!5 (not x!6) (not x!7))        (and (not x!1) x!2 x!3 (not x!4) (not x!5) x!6 x!7)        (and (not x!1) (not x!2) (not x!3) x!4 (not x!5) (not x!6) x!7)        (and x!1 x!2 (not x!3) (not x!4) (not x!5) (not x!6) (not x!7))        (and (not x!1) (not x!2) x!3 x!4 (not x!5) x!6 x!7)        (and (not x!1) (not x!2) x!3 (not x!4) (not x!5) x!6 x!7)        (and (not x!1) x!2 x!3 x!4 (not x!5) (not x!6) x!7)        (and (not x!1) (not x!2) x!3 x!4 (not x!5) (not x!6) x!7)        (and (not x!1) x!2 x!3 (not x!4) (not x!5) (not x!6) x!7)        (and x!1 (not x!2) (not x!3) x!4 x!5 (not x!6) x!7)        (and x!1 (not x!2) x!3 (not x!4) x!5 (not x!6) x!7)        (and x!1 (not x!2) (not x!3) (not x!4) x!5 (not x!6) x!7)        (and (not x!1) x!2 x!3 x!4 x!5 (not x!6) (not x!7))        (and x!1 (not x!2) x!3 (not x!4) (not x!5) (not x!6) (not x!7))        (and (not x!1) (not x!2) (not x!3) (not x!4) (not x!5) x!6 x!7)        (and (not x!1) (not x!2) (not x!3) (not x!4) x!5 x!6 (not x!7))        (and x!1 (not x!2) (not x!3) (not x!4) (not x!5) x!6 (not x!7))        (and (not x!1) (not x!2) x!3 (not x!4) (not x!5) (not x!6) x!7)        (and (not x!1) x!2 x!3 (not x!4) x!5 (not x!6) (not x!7))        (and (not x!1) x!2 (not x!3) x!4 x!5 (not x!6) (not x!7))        (and (not x!1) x!2 (not x!3) (not x!4) x!5 (not x!6) (not x!7))        (and x!1 (not x!2) (not x!3) (not x!4) (not x!5) (not x!6) (not x!7))        (and (not x!1) x!2 (not x!3) (not x!4) (not x!5) (not x!6) x!7)        (and (not x!1) x!2 (not x!3) (not x!4) (not x!5) x!6 x!7)        (and (not x!1) (not x!2) (not x!3) (not x!4) x!5 (not x!6) (not x!7))        (and (not x!1) (not x!2) (not x!3) (not x!4) (not x!5) (not x!6) x!7)))  


